/*********************************************
 * OPL 12.6.0.0 Data
 * Author: Adrian Rodriguez Bazaga, Pau Rodriguez Esmerats
 * Creation Date: 06/12/2017 at 23:05:01
 *********************************************/

nNurses=333;
maxConsec=2;
maxPresence=7;
maxHours=5;
minHours=1;
hours=24;
demand= [58 63 83 90 63 83 90 67 61 38 10 6 12 11 13 7 12 5 3 5 40 83 44 62  ];
